c [ 1 2 -3 -4 -5 -6 7 -8 -9 10 ]
c r=8.000 p0=0.080
p cnf 10 80
1 3 -9 0
9 1 2 0
-5 -4 -6 0
3 7 -10 0
10 -4 -7 0
-1 2 -7 0
10 7 -2 0
-4 7 -10 0
-5 3 -4 0
-2 -8 9 0
-1 9 -8 0
-1 4 2 0
8 2 4 0
-3 6 4 0
-10 -9 -3 0
-7 -9 -5 0
-5 -6 8 0
-1 4 10 0
-1 6 7 0
4 -2 -5 0
-9 1 -10 0
1 -5 -7 0
9 1 -7 0
7 -4 10 0
-6 -9 1 0
10 7 -4 0
4 -9 8 0
5 10 7 0
-2 5 -6 0
-3 -7 -10 0
-9 -1 6 0
3 4 10 0
-10 1 -7 0
-3 -5 8 0
9 10 -7 0
-10 -9 -2 0
5 -6 8 0
8 3 10 0
-4 10 -5 0
7 10 5 0
7 -3 8 0
-5 4 2 0
3 -5 -8 0
-2 7 5 0
-7 3 -4 0
10 -2 8 0
8 2 4 0
10 -7 -9 0
-10 -5 -2 0
-6 10 -3 0
-3 -7 -10 0
5 10 8 0
-3 4 -2 0
5 1 -10 0
-5 -2 8 0
10 -6 -3 0
10 3 5 0
-7 10 -5 0
5 3 10 0
-4 2 6 0
4 -8 -5 0
9 -6 10 0
9 5 7 0
-10 1 9 0
-7 -4 6 0
8 1 -2 0
7 -2 -1 0
1 4 6 0
-4 6 -1 0
6 8 -9 0
9 1 -2 0
-4 -3 -5 0
8 9 1 0
-10 -9 -7 0
-8 4 6 0
8 -9 -7 0
3 7 -2 0
-9 -8 -1 0
-8 -3 -7 0
1 -3 5 0
